NAME : cvrp-A-G-150-12.1187.tour
COMMENT : Length = 1187
COMMENT : Found by LKH [Keld Helsgaun] Thu May 17 22:42:35 2018
TYPE : TOUR
DIMENSION : 31
TOUR_SECTION
1
29
30
10
2
5
15
7
26
24
22
14
8
11
16
4
18
27
23
20
28
13
9
3
12
6
25
21
19
31
17
-1
EOF
